0 1938
1 1938
2 1926
3 1841
4 1688
5 1688
6 1644
7 1633
8 1615
9 1568
10 1565
11 1507
12 1507
13 1461
14 1459
15 1422
16 1387
17 1387
18 1359
19 1300
20 1284
21 1240
22 1234
23 1221
24 1221
25 1209
26 1181
27 1168
28 1155
29 1132
30 1112
31 1106
32 1106
33 1094
34 1094
35 1094
36 1094
37 1092
38 1084
39 1084
40 1084
41 1064
42 1064
43 1064
44 1064
45 1050
46 1050
47 1050
48 1050
49 1047
50 1033
51 1033
52 990
53 990
54 990
55 984
56 984
57 984
58 979
59 979
60 979
61 979
62 979
63 979
64 976
65 976
66 971
67 953
68 953
69 953
70 953
71 953
72 950
73 950
74 945
75 945
76 945
77 945
78 945
79 945
80 940
81 940
82 940
83 940
84 940
85 940
86 940
87 940
88 938
89 938
90 938
91 938
92 938
93 938
94 938
95 937
96 937
97 936
98 936
99 936
100 936
101 936
102 936
103 935
104 935
105 935
106 935
107 935
108 935
109 935
110 935
111 935
112 935
113 934
114 933
115 933
116 933
117 932
118 932
119 932
120 928
121 927
122 927
123 927
124 927
125 926
126 926
127 926
128 921
129 921
130 921
131 921
132 921
133 921
134 921
135 921
136 921
137 921
138 921
139 921
140 921
141 920
142 920
143 920
144 920
145 920
146 920
147 920
148 920
149 920
150 920
151 920
152 918
153 918
154 918
155 918
156 918
157 918
158 918
159 918
160 918
161 918
162 918
163 918
164 918
165 918
166 918
167 918
168 918
169 918
170 918
171 918
172 918
173 918
174 918
175 918
176 918
177 918
178 918
179 918
180 918
181 918
182 918
183 918
184 918
185 918
186 918
187 918
188 918
189 918
190 918
191 918
192 918
193 918
194 918
195 918
196 918
197 918
198 918
199 918
200 918
201 918
202 918
203 918
204 918
205 918
206 918
207 918
208 918
209 918
210 918
211 918
212 918
213 918
214 918
215 918
216 918
217 918
218 918
219 918
220 918
221 918
222 918
223 918
224 918
225 918
226 918
227 918
228 918
229 918
230 918
231 918
232 918
233 918
234 918
235 918
236 918
237 918
238 918
239 918
240 918
241 918
242 918
243 918
244 918
245 918
246 918
247 918
248 918
249 918
250 918
251 918
252 918
253 918
254 918
255 918
256 918
257 918
258 918
259 918
260 918
261 918
262 918
263 918
264 918
265 918
266 918
267 918
268 918
269 918
270 918
271 918
272 918
273 918
274 918
275 918
276 918
277 918
278 918
279 918
280 918
281 918
282 918
283 918
284 918
285 918
286 918
287 918
288 918
289 918
290 918
291 918
292 918
293 918
294 918
295 918
296 918
297 918
298 918
299 918
300 918
301 918
302 918
303 918
304 918
305 918
306 918
307 918
308 918
309 918
310 918
311 918
312 918
313 918
314 918
315 918
316 918
317 918
318 918
319 918
320 918
321 918
322 918
323 918
324 918
325 918
326 918
327 918
328 918
329 918
330 918
331 918
332 918
333 918
334 918
335 918
336 918
337 918
338 918
339 918
340 918
341 918
342 918
343 918
344 918
345 918
346 918
347 918
348 918
349 918
350 918
351 918
352 918
353 918
354 918
355 918
356 918
357 918
358 918
359 918
360 918
361 918
362 918
363 918
364 918
365 918
366 918
367 918
368 918
369 918
370 918
371 918
372 918
373 918
374 918
375 918
376 918
377 918
378 918
379 918
380 918
381 918
382 918
383 918
384 918
385 918
386 918
387 918
388 918
389 918
390 918
391 918
392 918
393 918
394 918
395 918
396 918
397 918
398 918
399 918
400 918
401 918
402 918
403 918
404 918
405 918
406 918
407 918
408 918
409 918
410 918
411 918
412 918
413 918
414 918
415 918
416 918
417 918
418 918
419 918
420 918
421 918
422 918
423 918
424 918
425 918
426 918
427 918
428 918
429 918
430 918
431 918
432 918
433 918
434 918
435 918
436 918
437 918
438 918
439 918
440 918
441 918
442 918
443 918
444 918
445 918
446 918
447 918
448 918
449 918
450 918
451 918
452 918
453 918
454 918
455 918
456 918
457 918
458 918
459 918
460 918
461 918
462 918
463 918
464 918
465 918
466 918
467 918
468 918
469 918
470 918
471 918
472 918
473 918
474 918
475 918
476 918
477 918
478 918
479 918
480 918
481 918
482 918
483 918
484 918
485 918
486 918
487 918
488 918
489 918
490 918
491 918
492 918
493 918
494 918
495 918
496 918
497 918
498 918
499 918
500 918
501 918
502 918
503 918
504 918
505 918
506 918
507 918
508 918
509 918
510 918
511 918
512 918
513 918
514 918
515 918
516 918
517 918
518 918
519 918
520 918
521 918
522 918
523 918
524 918
525 918
526 918
527 918
528 918
529 918
530 918
531 918
532 918
533 918
534 918
535 918
536 918
537 918
538 918
539 918
540 918
541 918
542 918
543 918
544 918
545 918
546 918
547 918
548 918
549 918
550 918
551 918
552 918
553 918
554 918
555 918
556 918
557 918
558 918
559 918
560 918
561 918
562 918
563 918
564 918
565 918
566 918
567 918
568 918
569 918
570 918
571 918
572 918
573 918
574 918
575 918
576 918
577 918
578 918
579 918
580 918
581 918
582 918
583 918
584 918
585 918
586 918
587 918
588 918
589 918
590 918
591 918
592 918
593 918
594 918
595 918
596 918
597 918
598 918
599 918
600 918
601 918
602 918
603 918
604 918
605 918
606 918
607 918
608 918
609 918
610 918
611 918
612 918
613 918
614 918
615 918
616 918
617 918
618 918
619 918
620 918
621 918
622 918
623 918
624 918
625 918
626 918
627 918
628 918
629 918
630 918
631 918
632 918
633 918
634 918
635 918
636 918
637 918
638 918
639 918
640 918
641 918
642 918
643 918
644 918
645 918
646 918
647 918
648 918
649 918
650 918
651 918
652 918
653 918
654 918
655 918
656 918
657 918
658 918
659 918
660 918
661 918
662 918
663 918
664 918
665 918
666 918
667 918
668 918
669 918
670 918
671 918
672 918
673 918
674 918
675 918
676 918
677 918
678 918
679 918
680 918
681 918
682 918
683 918
684 918
685 918
686 918
687 918
688 918
689 918
690 918
691 918
692 918
693 918
694 918
695 918
696 918
697 918
698 918
699 918
700 918
701 918
702 918
703 918
704 918
705 918
706 918
707 918
708 918
709 918
710 918
711 918
712 918
713 918
714 918
715 918
716 918
717 918
718 918
719 918
720 918
721 918
722 918
723 918
724 918
725 918
726 918
727 918
728 918
729 918
730 918
731 918
732 918
733 918
734 918
735 918
736 918
737 918
738 918
739 918
740 918
741 918
742 918
743 918
744 918
745 918
746 918
747 918
748 918
749 918
750 918
751 918
752 918
753 918
754 918
755 918
756 918
757 918
758 918
759 918
760 918
761 918
762 918
763 918
764 918
765 918
766 918
767 918
768 918
769 918
770 918
771 918
772 918
773 918
774 918
775 918
776 918
777 918
778 918
779 918
780 918
781 918
782 918
783 918
784 918
785 918
786 918
787 918
788 918
789 918
790 918
791 918
792 918
793 918
794 918
795 918
796 918
797 918
798 918
799 918
800 918
801 918
802 918
803 918
804 918
805 918
806 918
807 918
808 918
809 918
810 918
811 918
812 918
813 918
814 918
815 918
816 918
817 918
818 918
819 918
820 918
821 918
822 918
823 918
824 918
825 918
826 918
827 918
828 918
829 918
830 918
831 918
832 918
833 918
834 918
835 918
836 918
837 918
838 918
839 918
840 918
841 918
842 918
843 918
844 918
845 918
846 918
847 918
848 918
849 918
850 918
851 918
852 918
853 918
854 918
855 918
856 918
857 918
858 918
859 918
860 918
861 918
862 918
863 918
864 918
865 918
866 918
867 918
868 918
869 918
870 918
871 918
872 918
873 918
874 918
875 918
876 918
877 918
878 918
879 918
880 918
881 918
882 918
883 918
884 918
885 918
886 918
887 918
888 918
889 918
890 918
891 918
892 918
893 918
894 918
895 918
896 918
897 918
898 918
899 918
900 918
901 918
902 918
903 918
904 918
905 918
906 918
907 918
908 918
909 918
910 918
911 918
912 918
913 918
914 918
915 918
916 918
917 918
918 918
919 918
920 918
921 918
922 918
923 918
924 918
925 918
926 918
927 918
928 918
929 918
930 918
931 918
932 918
933 918
934 918
935 918
936 918
937 918
938 918
939 918
940 918
941 918
942 918
943 918
944 918
945 918
946 918
947 918
948 918
949 918
950 918
951 918
952 918
953 918
954 918
955 918
956 918
957 918
958 918
959 918
960 918
961 918
962 918
963 918
964 918
965 918
966 918
967 918
968 918
969 918
970 918
971 918
972 918
973 918
974 918
975 918
976 918
977 918
978 918
979 918
980 918
981 918
982 918
983 918
984 918
985 918
986 918
987 918
988 918
989 918
990 918
991 918
992 918
993 918
994 918
995 918
996 918
997 918
998 918
999 918
Best: [[13,2,17,6,26,21],
       [27,8,14,18,20,32,22],
       [25],
       [28,30,29,24,3,4,7,31],
       [15,19,9,5,12,10,23,16,11]], fitness: 918
